num_features = 33;
num_usage_limits = 6;
num_plans = 4;
num_addons = 1;

features = ["messagesAccess","search","appsAndServices","storageByAccount","storageByTeamMember","workspaces","customSections","slackConnect","guestsAccounts","dataCypher","twoFactorAuthentication","oAuthGoogle","singleSignOn","adminSlackEnterpriseKeys","enterpriseMobilitySecurity","customRules","exportMessages","complianceHIPAA","dataResidence","privilegesGeneralChannelManagement","privilegesPrivateChannelManagement","customUserGroups","usersManagement","activeDirectorySync","usersManagementSCIM","extraCompatibility","domainName","customSLAs","voiceAndVideoCalls","screenSharing","support","availability","personalTechnicalSupport"];
usage_limits = ["useMessagesAccess","useAppsAndServices","useVoiceAndVideoCalls","useStorageByAccount","useStorageByTeamMember","useWorkspaces"];
plans = ["FREE","STANDARD","PLUS","ENTERPRISE_GRID"];
addons = ["slackEnterpriseKeys"];

plans_prices = [0,8,15,150];
addons_prices = [100];

linked_features = array2d(USAGE_LIMITS, FEATURES, [
    % useMessagesAccess
    1,0,0,0,0,0,0,0,0,0,0,0,0,0,0,0,0,0,0,0,0,0,0,0,0,0,0,0,0,0,0,0,0,
    % useAppsAndServices
    0,0,1,0,0,0,0,0,0,0,0,0,0,0,0,0,0,0,0,0,0,0,0,0,0,0,0,0,0,0,0,0,0,
    % useVoiceAndVideoCalls
    0,0,0,0,0,0,0,0,0,0,0,0,0,0,0,0,0,0,0,0,0,0,0,0,0,0,0,0,1,0,0,0,0,
    % useStorageByAccount
    0,0,0,1,0,0,0,0,0,0,0,0,0,0,0,0,0,0,0,0,0,0,0,0,0,0,0,0,0,0,0,0,0,
    % useStorageByTeamMember
    0,0,0,0,1,0,0,0,0,0,0,0,0,0,0,0,0,0,0,0,0,0,0,0,0,0,0,0,0,0,0,0,0,
    % useWorkspaces
    0,0,0,0,0,1,0,0,0,0,0,0,0,0,0,0,0,0,0,0,0,0,0,0,0,0,0,0,0,0,0,0,0
]);

plans_features = array2d(PLANS, FEATURES, [
    % FREE
    1,1,1,1,0,0,0,0,0,1,1,0,0,0,0,0,0,0,0,1,0,0,0,0,0,0,0,0,1,0,1,0,0,
    % STANDARD
    1,1,1,1,1,0,1,1,1,1,1,1,0,0,0,1,0,0,0,1,0,1,0,0,0,0,0,0,1,1,1,0,0,
    % PLUS
    1,1,1,1,1,0,1,1,1,1,1,1,1,0,0,1,1,0,1,1,1,1,0,1,1,0,0,0,1,1,1,1,0,
    % ENTERPRISE_GRID
    1,1,1,1,1,0,1,1,1,1,1,0,1,0,1,1,1,1,1,1,1,1,1,1,1,1,1,1,1,1,1,1,1
]);
plans_usage_limits = array2d(PLANS, USAGE_LIMITS, [
    % FREE
    10000,10,1,5,10,1,
    % STANDARD
    100000000,100000000,15,5,10,1,
    % PLUS
    100000000,100000000,15,5,20,1,
    % ENTERPRISE_GRID
    100000000,100000000,15,5,1024,100000000
]);

addons_features = array2d(ADDONS, FEATURES, [
    % slackEnterpriseKeys
    0,0,0,0,0,0,0,0,0,0,0,0,0,1,0,0,0,0,0,0,0,0,0,0,0,0,0,0,0,0,0,0,0
]);
addons_usage_limits = array2d(ADDONS, USAGE_LIMITS, [
    % slackEnterpriseKeys
    0,0,0,0,0,0
]);
addons_usage_limits_extensions = array2d(ADDONS, USAGE_LIMITS, [
    % slackEnterpriseKeys
    0,0,0,0,0,0
]);
addons_available_for = array2d(ADDONS, PLANS, [
    % slackEnterpriseKeys
    0,0,0,1
]);
addons_depends_on = array2d(ADDONS, ADDONS, [
    % slackEnterpriseKeys
    0
]);
